words_hard_train/2010.qaiger
aag 110 20 0 1 90
2
4
12
14
18
22
26
30
34
44
52
66
80
96
112
128
146
148
162
194
220
6 2 4
8 3 5
10 7 9
16 13 15
20 16 19
24 20 23
28 24 27
32 28 31
36 32 35
38 10 37
40 11 36
42 39 41
46 44 12
48 12 14
50 49 17
54 50 52
56 47 55
58 51 53
60 57 59
62 17 18
64 63 21
68 64 66
70 61 69
72 65 67
74 71 73
76 21 22
78 77 25
82 79 81
84 78 80
86 83 85
88 74 86
90 89 85
92 25 26
94 93 29
98 95 97
100 94 96
102 99 101
104 91 102
106 105 101
108 29 30
110 109 33
114 111 113
116 110 112
118 115 117
120 107 118
122 121 117
124 33 34
126 125 37
130 127 129
132 126 128
134 131 133
136 123 134
138 137 133
140 43 138
142 42 139
144 141 143
150 146 148
152 147 149
154 151 153
156 144 155
158 90 103
160 159 105
164 160 162
166 161 163
168 75 87
170 169 89
172 45 13
174 173 59
176 174 56
178 170 176
180 69 73
182 181 61
184 178 183
186 167 184
188 165 187
190 106 119
192 191 121
196 193 195
198 189 197
200 192 194
202 199 201
204 122 135
206 205 137
208 207 146
210 203 209
212 206 147
214 211 213
216 157 215
218 145 154
220 217 219
i0 2 y1[7]
i1 2 y2[7]
i2 2 y2[0]
i3 2 y2[1]
i4 2 y2[2]
i5 2 y2[3]
i6 2 y2[4]
i7 2 y2[5]
i8 2 y2[6]
i9 2 y1[0]
i10 2 y1[1]
i11 2 y1[2]
i12 2 y1[3]
i13 2 y1[4]
i14 2 y1[5]
i15 2 y1[6]
i16 1 x2[2]
i17 1 x2[3]
i18 1 x2[0]
i19 1 x2[1]
o0 bv[0]
c
simplified
  >
    subtract
      -193
      << 4
        1 x2
    subtract
      2 y1
      2 y2
