words_hard_train/2010.qaiger.qdimacs
p cnf 110 271
a 81 73 74 97 0
e 1 2 3 4 5 6 7 8 9 10 11 12 13 14 15 16 17 18 19 20 21 22 23 24 25 26 27 28 29 30 31 32 33 34 35 36 37 38 39 40 41 42 43 44 45 46 47 48 49 50 51 52 53 54 55 56 57 58 59 60 61 62 63 64 65 66 67 68 69 70 71 72 75 76 77 78 79 80 82 83 84 85 86 87 88 89 90 91 92 93 94 95 96 98 99 100 101 102 103 104 105 106 107 108 109 110 0
-1 -2 3 0
1 -3 0
2 -3 0
1 2 4 0
-1 -4 0
-2 -4 0
3 4 5 0
-3 -5 0
-4 -5 0
6 7 8 0
-6 -8 0
-7 -8 0
-8 9 10 0
8 -10 0
-9 -10 0
-10 11 12 0
10 -12 0
-11 -12 0
-12 13 14 0
12 -14 0
-13 -14 0
-14 15 16 0
14 -16 0
-15 -16 0
-16 17 18 0
16 -18 0
-17 -18 0
-5 18 19 0
5 -19 0
-18 -19 0
5 -18 20 0
-5 -20 0
18 -20 0
19 20 21 0
-19 -21 0
-20 -21 0
-22 -6 23 0
22 -23 0
6 -23 0
-6 -7 24 0
6 -24 0
7 -24 0
24 8 25 0
-24 -25 0
-8 -25 0
-25 -26 27 0
25 -27 0
26 -27 0
23 27 28 0
-23 -28 0
-27 -28 0
25 26 29 0
-25 -29 0
-26 -29 0
28 29 30 0
-28 -30 0
-29 -30 0
8 -9 31 0
-8 -31 0
9 -31 0
31 10 32 0
-31 -32 0
-10 -32 0
-32 -33 34 0
32 -34 0
33 -34 0
30 34 35 0
-30 -35 0
-34 -35 0
32 33 36 0
-32 -36 0
-33 -36 0
35 36 37 0
-35 -37 0
-36 -37 0
10 -11 38 0
-10 -38 0
11 -38 0
38 12 39 0
-38 -39 0
-12 -39 0
39 40 41 0
-39 -41 0
-40 -41 0
-39 -40 42 0
39 -42 0
40 -42 0
41 42 43 0
-41 -43 0
-42 -43 0
-37 -43 44 0
37 -44 0
43 -44 0
44 42 45 0
-44 -45 0
-42 -45 0
12 -13 46 0
-12 -46 0
13 -46 0
46 14 47 0
-46 -47 0
-14 -47 0
47 48 49 0
-47 -49 0
-48 -49 0
-47 -48 50 0
47 -50 0
48 -50 0
49 50 51 0
-49 -51 0
-50 -51 0
45 -51 52 0
-45 -52 0
51 -52 0
52 50 53 0
-52 -53 0
-50 -53 0
14 -15 54 0
-14 -54 0
15 -54 0
54 16 55 0
-54 -55 0
-16 -55 0
55 56 57 0
-55 -57 0
-56 -57 0
-55 -56 58 0
55 -58 0
56 -58 0
57 58 59 0
-57 -59 0
-58 -59 0
53 -59 60 0
-53 -60 0
59 -60 0
60 58 61 0
-60 -61 0
-58 -61 0
16 -17 62 0
-16 -62 0
17 -62 0
62 18 63 0
-62 -63 0
-18 -63 0
63 64 65 0
-63 -65 0
-64 -65 0
-63 -64 66 0
63 -66 0
64 -66 0
65 66 67 0
-65 -67 0
-66 -67 0
61 -67 68 0
-61 -68 0
67 -68 0
68 66 69 0
-68 -69 0
-66 -69 0
21 -69 70 0
-21 -70 0
69 -70 0
-21 69 71 0
21 -71 0
-69 -71 0
70 71 72 0
-70 -72 0
-71 -72 0
-73 -74 75 0
73 -75 0
74 -75 0
73 74 76 0
-73 -76 0
-74 -76 0
75 76 77 0
-75 -77 0
-76 -77 0
-72 77 78 0
72 -78 0
-77 -78 0
-45 51 79 0
45 -79 0
-51 -79 0
79 52 80 0
-79 -80 0
-52 -80 0
-80 -81 82 0
80 -82 0
81 -82 0
80 81 83 0
-80 -83 0
-81 -83 0
37 43 84 0
-37 -84 0
-43 -84 0
84 44 85 0
-84 -85 0
-44 -85 0
22 6 86 0
-22 -86 0
-6 -86 0
86 29 87 0
-86 -87 0
-29 -87 0
-87 -28 88 0
87 -88 0
28 -88 0
-85 -88 89 0
85 -89 0
88 -89 0
34 36 90 0
-34 -90 0
-36 -90 0
90 30 91 0
-90 -91 0
-30 -91 0
-89 91 92 0
89 -92 0
-91 -92 0
83 -92 93 0
-83 -93 0
92 -93 0
82 93 94 0
-82 -94 0
-93 -94 0
-53 59 95 0
53 -95 0
-59 -95 0
95 60 96 0
-95 -96 0
-60 -96 0
96 97 98 0
-96 -98 0
-97 -98 0
94 98 99 0
-94 -99 0
-98 -99 0
-96 -97 100 0
96 -100 0
97 -100 0
99 100 101 0
-99 -101 0
-100 -101 0
-61 67 102 0
61 -102 0
-67 -102 0
102 68 103 0
-102 -103 0
-68 -103 0
103 -73 104 0
-103 -104 0
73 -104 0
101 104 105 0
-101 -105 0
-104 -105 0
-103 73 106 0
103 -106 0
-73 -106 0
105 106 107 0
-105 -107 0
-106 -107 0
78 107 108 0
-78 -108 0
-107 -108 0
72 -77 109 0
-72 -109 0
77 -109 0
108 109 110 0
-108 -110 0
-109 -110 0
110 0
